N = 14;
H = 5;
T = 2;

avail = array3d(1..N, 1..H, 1..T, [0, 5, 1, 1, 1, 2, 2, 1, 1, 4, 3, 3, 7, 10, 6, 10, 7, 2, 3, 3, 5, 0, 0, 5, 1, 2, 9, 3, 8, 8, 5, 7, 4, 2, 9, 1, 5, 3, 3, 2, 4, 2, 6, 7, 9, 6, 1, 5, 7, 8, 5, 10, 8, 9, 10, 10, 9, 10, 5, 1, 2, 8, 7, 9, 8, 0, 4, 9, 8, 5, 6, 7, 5, 7, 5, 5, 10, 6, 7, 5, 7, 7, 0, 5, 3, 5, 0, 5, 2, 8, 5, 8, 0, 9, 1, 2, 4, 2, 4, 8, 0, 5, 4, 5, 5, 7, 4, 10, 3, 2, 3, 1, 7, 9, 8, 1, 0, 0, 7, 9, 1, 5, 6, 2, 5, 9, 2, 1, 7, 0, 1, 8, 2, 3, 8, 8, 9, 6, 5, 2]);

r = array2d(1..H, 1..T, [3, 2, 5, 4, 5, 1, 2, 5, 3, 4]);
